(set-logic QF_S)
(declare-fun _var_0xINPUT_134325_() String)
(declare-fun __woorpje_diseq_pref0_() String)
(declare-fun __woorpje_diseq_suf_l0_() String)
(declare-fun __woorpje_diseq_suf_r0_() String)
(assert (=(str.++ _var_0xINPUT_134325_  "")(str.++ __woorpje_diseq_pref0_  "E" __woorpje_diseq_suf_l0_  "")) )
(assert (=(str.++  "dJ5UtkEBBp" "")(str.++ __woorpje_diseq_pref0_  "p" __woorpje_diseq_suf_r0_  "")) )
(check-sat)
